100
1000
239
238
237
237
236
236
236
235
235
234
234
232
232
231
230
230
230
230
229
228
228
227
227
226
226
223
221
220
220
219
217
217
216
213
212
212
211
211
208
207
207
207
204
204
204
203
203
203
200
200
198
198
197
197
195
195
195
194
193
193
193
192
187
186
186
185
185
185
183
183
183
183
183
182
182
182
182
180
180
180
179
179
177
176
174
174
173
172
170
170
169
169
168
166
166
165
165
164
163
162
